p cnf 799
-12 -250
-13 -253
-14 -256
-15 -259
-16 -262
-17 -265
-18 -268
-19 -271
-20 -274
-21 -277
-22 -280
-23 281
-24 282
-25 283
-26 284
-27 285
-28 286
-29 287
-30 -13
-30 -14
13 14 30
-31 -15
-31 -16
15 16 31
-32 -17
-32 -18
17 18 32
-33 -19
-33 -20
19 20 33
-34 -21
-34 -22
21 22 34
-35 -23
-35 -24
23 24 35
-36 -25
-36 -26
25 26 36
-37 -27
-37 -28
27 28 37
-38 30
-38 31
-30 -31 38
-39 32
-39 33
-32 -33 39
-40 34
-40 35
-34 -35 40
-41 36
-41 37
-36 -37 41
-42 38
-42 39
-38 -39 42
-43 40
-43 41
-40 -41 43
-44 42
-44 43
-42 -43 44
-45 -29
-45 44
29 -44 45
-46 -12
-46 13
12 -13 46
-47 12
-47 -13
-12 13 47
-48 -46
-48 -47
46 47 48
-49 12
-49 13
-12 -13 49
-50 -12
-50 -48
12 48 50
-51 12
-51 48
-12 -48 51
-52 -50
-52 -51
50 51 52
-53 12
-53 -48
-12 48 53
-54 -49
-54 -53
49 53 54
-55 -13
-55 14
13 -14 55
-56 13
-56 -14
-13 14 56
-57 -55
-57 -56
55 56 57
-58 13
-58 14
-13 -14 58
-59 54
-59 -57
-54 57 59
-60 -54
-60 57
54 -57 60
-61 -59
-61 -60
59 60 61
-62 -54
-62 -57
54 57 62
-63 -58
-63 -62
58 62 63
-64 -14
-64 15
14 -15 64
-65 14
-65 -15
-14 15 65
-66 -64
-66 -65
64 65 66
-67 14
-67 15
-14 -15 67
-68 63
-68 -66
-63 66 68
-69 -63
-69 66
63 -66 69
-70 -68
-70 -69
68 69 70
-71 -63
-71 -66
63 66 71
-72 -67
-72 -71
67 71 72
-73 -15
-73 16
15 -16 73
-74 15
-74 -16
-15 16 74
-75 -73
-75 -74
73 74 75
-76 15
-76 16
-15 -16 76
-77 72
-77 -75
-72 75 77
-78 -72
-78 75
72 -75 78
-79 -77
-79 -78
77 78 79
-80 -72
-80 -75
72 75 80
-81 -76
-81 -80
76 80 81
-82 -16
-82 17
16 -17 82
-83 16
-83 -17
-16 17 83
-84 -82
-84 -83
82 83 84
-85 16
-85 17
-16 -17 85
-86 81
-86 -84
-81 84 86
-87 -81
-87 84
81 -84 87
-88 -86
-88 -87
86 87 88
-89 -81
-89 -84
81 84 89
-90 -85
-90 -89
85 89 90
-91 -17
-91 18
17 -18 91
-92 17
-92 -18
-17 18 92
-93 -91
-93 -92
91 92 93
-94 17
-94 18
-17 -18 94
-95 90
-95 -93
-90 93 95
-96 -90
-96 93
90 -93 96
-97 -95
-97 -96
95 96 97
-98 -90
-98 -93
90 93 98
-99 -94
-99 -98
94 98 99
-100 -18
-100 19
18 -19 100
-101 18
-101 -19
-18 19 101
-102 -100
-102 -101
100 101 102
-103 18
-103 19
-18 -19 103
-104 99
-104 -102
-99 102 104
-105 -99
-105 102
99 -102 105
-106 -104
-106 -105
104 105 106
-107 -99
-107 -102
99 102 107
-108 -103
-108 -107
103 107 108
-109 -19
-109 20
19 -20 109
-110 19
-110 -20
-19 20 110
-111 -109
-111 -110
109 110 111
-112 19
-112 20
-19 -20 112
-113 108
-113 -111
-108 111 113
-114 -108
-114 111
108 -111 114
-115 -113
-115 -114
113 114 115
-116 -108
-116 -111
108 111 116
-117 -112
-117 -116
112 116 117
-118 -20
-118 21
20 -21 118
-119 20
-119 -21
-20 21 119
-120 -118
-120 -119
118 119 120
-121 20
-121 21
-20 -21 121
-122 117
-122 -120
-117 120 122
-123 -117
-123 120
117 -120 123
-124 -122
-124 -123
122 123 124
-125 -117
-125 -120
117 120 125
-126 -121
-126 -125
121 125 126
-127 -21
-127 22
21 -22 127
-128 21
-128 -22
-21 22 128
-129 -127
-129 -128
127 128 129
-130 21
-130 22
-21 -22 130
-131 126
-131 -129
-126 129 131
-132 -126
-132 129
126 -129 132
-133 -131
-133 -132
131 132 133
-134 -126
-134 -129
126 129 134
-135 -130
-135 -134
130 134 135
-136 -22
-136 23
22 -23 136
-137 22
-137 -23
-22 23 137
-138 -136
-138 -137
136 137 138
-139 22
-139 23
-22 -23 139
-140 135
-140 -138
-135 138 140
-141 -135
-141 138
135 -138 141
-142 -140
-142 -141
140 141 142
-143 -135
-143 -138
135 138 143
-144 -139
-144 -143
139 143 144
-145 -23
-145 24
23 -24 145
-146 23
-146 -24
-23 24 146
-147 -145
-147 -146
145 146 147
-148 23
-148 24
-23 -24 148
-149 144
-149 -147
-144 147 149
-150 -144
-150 147
144 -147 150
-151 -149
-151 -150
149 150 151
-152 -144
-152 -147
144 147 152
-153 -148
-153 -152
148 152 153
-154 -24
-154 25
24 -25 154
-155 24
-155 -25
-24 25 155
-156 -154
-156 -155
154 155 156
-157 24
-157 25
-24 -25 157
-158 153
-158 -156
-153 156 158
-159 -153
-159 156
153 -156 159
-160 -158
-160 -159
158 159 160
-161 -153
-161 -156
153 156 161
-162 -157
-162 -161
157 161 162
-163 -25
-163 26
25 -26 163
-164 25
-164 -26
-25 26 164
-165 -163
-165 -164
163 164 165
-166 25
-166 26
-25 -26 166
-167 162
-167 -165
-162 165 167
-168 -162
-168 165
162 -165 168
-169 -167
-169 -168
167 168 169
-170 -162
-170 -165
162 165 170
-171 -166
-171 -170
166 170 171
-172 -26
-172 27
26 -27 172
-173 26
-173 -27
-26 27 173
-174 -172
-174 -173
172 173 174
-175 26
-175 27
-26 -27 175
-176 171
-176 -174
-171 174 176
-177 -171
-177 174
171 -174 177
-178 -176
-178 -177
176 177 178
-179 -171
-179 -174
171 174 179
-180 -175
-180 -179
175 179 180
-181 -27
-181 28
27 -28 181
-182 27
-182 -28
-27 28 182
-183 -181
-183 -182
181 182 183
-184 27
-184 28
-27 -28 184
-185 180
-185 -183
-180 183 185
-186 -180
-186 183
180 -183 186
-187 -185
-187 -186
185 186 187
-188 -180
-188 -183
180 183 188
-189 -184
-189 -188
184 188 189
-190 -28
-190 29
28 -29 190
-191 28
-191 -29
-28 29 191
-192 -190
-192 -191
190 191 192
-193 28
-193 29
-28 -29 193
-194 189
-194 -192
-189 192 194
-195 -189
-195 192
189 -192 195
-196 -194
-196 -195
194 195 196
-197 -189
-197 -192
189 192 197
-198 -193
-198 -197
193 197 198
-199 12
-199 -52
-12 52 199
-200 -12
-200 14
12 -14 200
-201 -199
-201 -200
199 200 201
-202 12
-202 -61
-12 61 202
-203 -12
-203 15
12 -15 203
-204 -202
-204 -203
202 203 204
-205 12
-205 -70
-12 70 205
-206 -12
-206 16
12 -16 206
-207 -205
-207 -206
205 206 207
-208 12
-208 -79
-12 79 208
-209 -12
-209 17
12 -17 209
-210 -208
-210 -209
208 209 210
-211 12
-211 -88
-12 88 211
-212 -12
-212 18
12 -18 212
-213 -211
-213 -212
211 212 213
-214 12
-214 -97
-12 97 214
-215 -12
-215 19
12 -19 215
-216 -214
-216 -215
214 215 216
-217 12
-217 -106
-12 106 217
-218 -12
-218 20
12 -20 218
-219 -217
-219 -218
217 218 219
-220 12
-220 -115
-12 115 220
-221 -12
-221 21
12 -21 221
-222 -220
-222 -221
220 221 222
-223 12
-223 -124
-12 124 223
-224 -12
-224 22
12 -22 224
-225 -223
-225 -224
223 224 225
-226 12
-226 -133
-12 133 226
-227 -12
-227 23
12 -23 227
-228 -226
-228 -227
226 227 228
-229 12
-229 -142
-12 142 229
-230 -12
-230 24
12 -24 230
-231 -229
-231 -230
229 230 231
-232 12
-232 -151
-12 151 232
-233 -12
-233 25
12 -25 233
-234 -232
-234 -233
232 233 234
-235 12
-235 -160
-12 160 235
-236 -12
-236 26
12 -26 236
-237 -235
-237 -236
235 236 237
-238 12
-238 -169
-12 169 238
-239 -12
-239 27
12 -27 239
-240 -238
-240 -239
238 239 240
-241 12
-241 -178
-12 178 241
-242 -12
-242 28
12 -28 242
-243 -241
-243 -242
241 242 243
-244 12
-244 -187
-12 187 244
-245 -12
-245 29
12 -29 245
-246 -244
-246 -245
244 245 246
-247 12
-247 -196
-12 196 247
-248 1
-248 45
-1 -45 248
-249 -45
-249 46
45 -46 249
-250 -248
-250 -249
248 249 250
-251 2
-251 45
-2 -45 251
-252 -45
-252 -201
45 201 252
-253 -251
-253 -252
251 252 253
-254 3
-254 45
-3 -45 254
-255 -45
-255 -204
45 204 255
-256 -254
-256 -255
254 255 256
-257 4
-257 45
-4 -45 257
-258 -45
-258 -207
45 207 258
-259 -257
-259 -258
257 258 259
-260 5
-260 45
-5 -45 260
-261 -45
-261 -210
45 210 261
-262 -260
-262 -261
260 261 262
-263 6
-263 45
-6 -45 263
-264 -45
-264 -213
45 213 264
-265 -263
-265 -264
263 264 265
-266 7
-266 45
-7 -45 266
-267 -45
-267 -216
45 216 267
-268 -266
-268 -267
266 267 268
-269 8
-269 45
-8 -45 269
-270 -45
-270 -219
45 219 270
-271 -269
-271 -270
269 270 271
-272 9
-272 45
-9 -45 272
-273 -45
-273 -222
45 222 273
-274 -272
-274 -273
272 273 274
-275 10
-275 45
-10 -45 275
-276 -45
-276 -225
45 225 276
-277 -275
-277 -276
275 276 277
-278 11
-278 45
-11 -45 278
-279 -45
-279 -228
45 228 279
-280 -278
-280 -279
278 279 280
-281 -45
-281 -231
45 231 281
-282 -45
-282 -234
45 234 282
-283 -45
-283 -237
45 237 283
-284 -45
-284 -240
45 240 284
-285 -45
-285 -243
45 243 285
-286 -45
-286 -246
45 246 286
-287 -45
-287 247
45 -247 287
-288 -29
-288 198
29 -198 288
-289 12
-289 -288
-12 288 289
289
